29
 1 377 13
 2 87 3
 3 232 8
 4 348 12
 5 348 12
 6 319 11
 7 174 6
 8 464 16
 9 522 18
 10 464 16
 11 319 11
 12 58 2
 13 58 2
 14 435 15
 15 145 5
 16 58 2
 17 580 20
 18 116 4
 19 348 12
 20 290 10
 21 464 16
 22 493 17
 23 319 11
 24 232 8
 25 203 7
 26 116 4
 27 290 10
 28 145 5
 29 58 2
493